Problem:    PLI_Antitrust
Rows:       13
Columns:    14 (7 integer, 7 binary)
Non-zeros:  67
Status:     INTEGER OPTIMAL
Objective:  z = 30 (MINimum)

   No.   Row name        Activity     Lower bound   Upper bound
------ ------------    ------------- ------------- -------------
     1 def_y[1]                  344           344             = 
     2 def_y[2]                  293           293             = 
     3 def_y[3]                  356           356             = 
     4 def_yy[1]                   0            -0             = 
     5 def_yy[2]                   0            -0             = 
     6 def_yy[3]                   0            -0             = 
     7 z                          30                             
     8 ass1[1]                    26            -0               
     9 ass1[2]                    51            -0               
    10 ass1[3]                     0            -0               
    11 ass2[1]                    34            -0               
    12 ass2[2]                     9            -0               
    13 ass2[3]                    60            -0               

   No. Column name       Activity     Lower bound   Upper bound
------ ------------    ------------- ------------- -------------
     1 x[1]         *              0             0             1 
     2 x[2]         *              0             0             1 
     3 x[3]         *              0             0             1 
     4 x[4]         *              1             0             1 
     5 x[5]         *              0             0             1 
     6 x[6]         *              1             0             1 
     7 x[7]         *              1             0             1 
     8 y[1]                      174             0               
     9 y[2]                      136             0               
    10 y[3]                      193             0               
    11 yy[1]                     170             0               
    12 yy[2]                     157             0               
    13 yy[3]                     163             0               
    14 delta                      30             0               

Integer feasibility conditions:

KKT.PE: max.abs.err = 0.00e+000 on row 0
        max.rel.err = 0.00e+000 on row 0
        High quality

KKT.PB: max.abs.err = 0.00e+000 on row 0
        max.rel.err = 0.00e+000 on row 0
        High quality

End of output
